param set_len = 16;
param target_sum = 470732149;
param values := [0] 49363616 [1] 77261450 [2] 93134853 [3] 35383435 [4] 87438309 [5] 18775208 [6] 100844661 [7] 48489026 [8] 114029480 [9] 3341132 [10] 45323433 [11] 49712871 [12] 62667759 [13] 5399889 [14] 47425774 [15] 66239783 ;
